% Instance for pentominoes model generated using https://github.com/zayenz/minizinc-pentominoes-generator
% Instance generated for board size 15 with 10 tiles using 4711 as seed
% Generated board
%    444444442222255
%    4444444422bb255
%    4444444422bb355
%    4444444442b3355
%    1444994472b3335
%    119999477333333
%    111999977333333
%    111197777333333
%    111117777333388
%    111177777333388
%    111177777336368
%    111777777366666
%    111177777366666
%    111117776666666
%    111111766666666

size = 15;
tiles = 10;
expressions = [
    "( ([2 3 4 5 6 7 8 9 10 11]* 1{1} [2 3 4 5 6 7 8 9 10 11]{14} [2 3 4 5 6 7 8 9 10 11] 1{2} [2 3 4 5 6 7 8 9 10 11]{13} [2 3 4 5 6 7 8 9 10 11] 1{3} [2 3 4 5 6 7 8 9 10 11]{12} [2 3 4 5 6 7 8 9 10 11] 1{4} [2 3 4 5 6 7 8 9 10 11]{11} [2 3 4 5 6 7 8 9 10 11] 1{5} [2 3 4 5 6 7 8 9 10 11]{10} [2 3 4 5 6 7 8 9 10 11] 1{4} [2 3 4 5 6 7 8 9 10 11]{11} [2 3 4 5 6 7 8 9 10 11] 1{4} [2 3 4 5 6 7 8 9 10 11]{11} [2 3 4 5 6 7 8 9 10 11] 1{3} [2 3 4 5 6 7 8 9 10 11]{12} [2 3 4 5 6 7 8 9 10 11] 1{4} [2 3 4 5 6 7 8 9 10 11]{11} [2 3 4 5 6 7 8 9 10 11] 1{5} [2 3 4 5 6 7 8 9 10 11]{10} [2 3 4 5 6 7 8 9 10 11] 1{6}  [2 3 4 5 6 7 8 9 10 11]*) | ([2 3 4 5 6 7 8 9 10 11]* 1{11} [2 3 4 5 6 7 8 9 10 11]{4} [2 3 4 5 6 7 8 9 10 11] 1{10} [2 3 4 5 6 7 8 9 10 11]{5} [2 3 4 5 6 7 8 9 10 11] 1{9} [2 3 4 5 6 7 8 9 10 11]{6} [2 3 4 5 6 7 8 9 10 11] 1{3} [2 3 4 5 6 7 8 9 10 11]{1} 1{4} [2 3 4 5 6 7 8 9 10 11]{7} [2 3 4 5 6 7 8 9 10 11] 1{2} [2 3 4 5 6 7 8 9 10 11]{4} 1{1} [2 3 4 5 6 7 8 9 10 11]{8} [2 3 4 5 6 7 8 9 10 11] 1{1}  [2 3 4 5 6 7 8 9 10 11]*) | ([2 3 4 5 6 7 8 9 10 11]* 1{6} [2 3 4 5 6 7 8 9 10 11] [2 3 4 5 6 7 8 9 10 11]{10} 1{5} [2 3 4 5 6 7 8 9 10 11] [2 3 4 5 6 7 8 9 10 11]{11} 1{4} [2 3 4 5 6 7 8 9 10 11] [2 3 4 5 6 7 8 9 10 11]{12} 1{3} [2 3 4 5 6 7 8 9 10 11] [2 3 4 5 6 7 8 9 10 11]{11} 1{4} [2 3 4 5 6 7 8 9 10 11] [2 3 4 5 6 7 8 9 10 11]{11} 1{4} [2 3 4 5 6 7 8 9 10 11] [2 3 4 5 6 7 8 9 10 11]{10} 1{5} [2 3 4 5 6 7 8 9 10 11] [2 3 4 5 6 7 8 9 10 11]{11} 1{4} [2 3 4 5 6 7 8 9 10 11] [2 3 4 5 6 7 8 9 10 11]{12} 1{3} [2 3 4 5 6 7 8 9 10 11] [2 3 4 5 6 7 8 9 10 11]{13} 1{2} [2 3 4 5 6 7 8 9 10 11] [2 3 4 5 6 7 8 9 10 11]{14} 1{1}  [2 3 4 5 6 7 8 9 10 11]*) | ([2 3 4 5 6 7 8 9 10 11]* 1{1} [2 3 4 5 6 7 8 9 10 11] [2 3 4 5 6 7 8 9 10 11]{8} 1{1} [2 3 4 5 6 7 8 9 10 11]{4} 1{2} [2 3 4 5 6 7 8 9 10 11] [2 3 4 5 6 7 8 9 10 11]{7} 1{4} [2 3 4 5 6 7 8 9 10 11]{1} 1{3} [2 3 4 5 6 7 8 9 10 11] [2 3 4 5 6 7 8 9 10 11]{6} 1{9} [2 3 4 5 6 7 8 9 10 11] [2 3 4 5 6 7 8 9 10 11]{5} 1{10} [2 3 4 5 6 7 8 9 10 11] [2 3 4 5 6 7 8 9 10 11]{4} 1{11}  [2 3 4 5 6 7 8 9 10 11]*) | ([2 3 4 5 6 7 8 9 10 11]* 1{1} [2 3 4 5 6 7 8 9 10 11] [2 3 4 5 6 7 8 9 10 11]{13} 1{2} [2 3 4 5 6 7 8 9 10 11] [2 3 4 5 6 7 8 9 10 11]{12} 1{3} [2 3 4 5 6 7 8 9 10 11] [2 3 4 5 6 7 8 9 10 11]{11} 1{4} [2 3 4 5 6 7 8 9 10 11] [2 3 4 5 6 7 8 9 10 11]{10} 1{5} [2 3 4 5 6 7 8 9 10 11] [2 3 4 5 6 7 8 9 10 11]{11} 1{4} [2 3 4 5 6 7 8 9 10 11] [2 3 4 5 6 7 8 9 10 11]{11} 1{4} [2 3 4 5 6 7 8 9 10 11] [2 3 4 5 6 7 8 9 10 11]{12} 1{3} [2 3 4 5 6 7 8 9 10 11] [2 3 4 5 6 7 8 9 10 11]{11} 1{4} [2 3 4 5 6 7 8 9 10 11] [2 3 4 5 6 7 8 9 10 11]{10} 1{5} [2 3 4 5 6 7 8 9 10 11] [2 3 4 5 6 7 8 9 10 11]{9} 1{6}  [2 3 4 5 6 7 8 9 10 11]*) | ([2 3 4 5 6 7 8 9 10 11]* 1{11} [2 3 4 5 6 7 8 9 10 11] [2 3 4 5 6 7 8 9 10 11]{5} 1{10} [2 3 4 5 6 7 8 9 10 11] [2 3 4 5 6 7 8 9 10 11]{6} 1{9} [2 3 4 5 6 7 8 9 10 11] [2 3 4 5 6 7 8 9 10 11]{7} 1{4} [2 3 4 5 6 7 8 9 10 11]{1} 1{3} [2 3 4 5 6 7 8 9 10 11] [2 3 4 5 6 7 8 9 10 11]{8} 1{1} [2 3 4 5 6 7 8 9 10 11]{4} 1{2} [2 3 4 5 6 7 8 9 10 11] [2 3 4 5 6 7 8 9 10 11]{14} 1{1}  [2 3 4 5 6 7 8 9 10 11]*) | ([2 3 4 5 6 7 8 9 10 11]* 1{6} [2 3 4 5 6 7 8 9 10 11]{9} [2 3 4 5 6 7 8 9 10 11] 1{5} [2 3 4 5 6 7 8 9 10 11]{10} [2 3 4 5 6 7 8 9 10 11] 1{4} [2 3 4 5 6 7 8 9 10 11]{11} [2 3 4 5 6 7 8 9 10 11] 1{3} [2 3 4 5 6 7 8 9 10 11]{12} [2 3 4 5 6 7 8 9 10 11] 1{4} [2 3 4 5 6 7 8 9 10 11]{11} [2 3 4 5 6 7 8 9 10 11] 1{4} [2 3 4 5 6 7 8 9 10 11]{11} [2 3 4 5 6 7 8 9 10 11] 1{5} [2 3 4 5 6 7 8 9 10 11]{10} [2 3 4 5 6 7 8 9 10 11] 1{4} [2 3 4 5 6 7 8 9 10 11]{11} [2 3 4 5 6 7 8 9 10 11] 1{3} [2 3 4 5 6 7 8 9 10 11]{12} [2 3 4 5 6 7 8 9 10 11] 1{2} [2 3 4 5 6 7 8 9 10 11]{13} [2 3 4 5 6 7 8 9 10 11] 1{1}  [2 3 4 5 6 7 8 9 10 11]*) | ([2 3 4 5 6 7 8 9 10 11]* 1{1} [2 3 4 5 6 7 8 9 10 11]{14} [2 3 4 5 6 7 8 9 10 11] 1{2} [2 3 4 5 6 7 8 9 10 11]{4} 1{1} [2 3 4 5 6 7 8 9 10 11]{8} [2 3 4 5 6 7 8 9 10 11] 1{3} [2 3 4 5 6 7 8 9 10 11]{1} 1{4} [2 3 4 5 6 7 8 9 10 11]{7} [2 3 4 5 6 7 8 9 10 11] 1{9} [2 3 4 5 6 7 8 9 10 11]{6} [2 3 4 5 6 7 8 9 10 11] 1{10} [2 3 4 5 6 7 8 9 10 11]{5} [2 3 4 5 6 7 8 9 10 11] 1{11}  [2 3 4 5 6 7 8 9 10 11]*) )",
    "( ([1 3 4 5 6 7 8 9 10 11]* 2{5} [1 3 4 5 6 7 8 9 10 11]{2} [1 3 4 5 6 7 8 9 10 11] [1 3 4 5 6 7 8 9 10 11]{8} 2{2} [1 3 4 5 6 7 8 9 10 11]{2} 2{1} [1 3 4 5 6 7 8 9 10 11]{2} [1 3 4 5 6 7 8 9 10 11] [1 3 4 5 6 7 8 9 10 11]{8} 2{2} [1 3 4 5 6 7 8 9 10 11]{5} [1 3 4 5 6 7 8 9 10 11] [1 3 4 5 6 7 8 9 10 11]{9} 2{1} [1 3 4 5 6 7 8 9 10 11]{5} [1 3 4 5 6 7 8 9 10 11] [1 3 4 5 6 7 8 9 10 11]{9} 2{1}  [1 3 4 5 6 7 8 9 10 11]*) | ([1 3 4 5 6 7 8 9 10 11]* 2{3} [1 3 4 5 6 7 8 9 10 11] [1 3 4 5 6 7 8 9 10 11]{10} 2{5} [1 3 4 5 6 7 8 9 10 11] [1 3 4 5 6 7 8 9 10 11]{14} 2{1} [1 3 4 5 6 7 8 9 10 11] [1 3 4 5 6 7 8 9 10 11]{14} 2{1} [1 3 4 5 6 7 8 9 10 11] [1 3 4 5 6 7 8 9 10 11]{13} 2{2}  [1 3 4 5 6 7 8 9 10 11]*) | ([1 3 4 5 6 7 8 9 10 11]* 2{1} [1 3 4 5 6 7 8 9 10 11]{9} [1 3 4 5 6 7 8 9 10 11] [1 3 4 5 6 7 8 9 10 11]{5} 2{1} [1 3 4 5 6 7 8 9 10 11]{9} [1 3 4 5 6 7 8 9 10 11] [1 3 4 5 6 7 8 9 10 11]{5} 2{2} [1 3 4 5 6 7 8 9 10 11]{8} [1 3 4 5 6 7 8 9 10 11] [1 3 4 5 6 7 8 9 10 11]{2} 2{1} [1 3 4 5 6 7 8 9 10 11]{2} 2{2} [1 3 4 5 6 7 8 9 10 11]{8} [1 3 4 5 6 7 8 9 10 11] [1 3 4 5 6 7 8 9 10 11]{2} 2{5}  [1 3 4 5 6 7 8 9 10 11]*) | ([1 3 4 5 6 7 8 9 10 11]* 2{2} [1 3 4 5 6 7 8 9 10 11]{13} [1 3 4 5 6 7 8 9 10 11] 2{1} [1 3 4 5 6 7 8 9 10 11]{14} [1 3 4 5 6 7 8 9 10 11] 2{1} [1 3 4 5 6 7 8 9 10 11]{14} [1 3 4 5 6 7 8 9 10 11] 2{5} [1 3 4 5 6 7 8 9 10 11]{10} [1 3 4 5 6 7 8 9 10 11] 2{3}  [1 3 4 5 6 7 8 9 10 11]*) | ([1 3 4 5 6 7 8 9 10 11]* 2{5} [1 3 4 5 6 7 8 9 10 11]{8} [1 3 4 5 6 7 8 9 10 11] [1 3 4 5 6 7 8 9 10 11]{2} 2{1} [1 3 4 5 6 7 8 9 10 11]{2} 2{2} [1 3 4 5 6 7 8 9 10 11]{8} [1 3 4 5 6 7 8 9 10 11] [1 3 4 5 6 7 8 9 10 11]{5} 2{2} [1 3 4 5 6 7 8 9 10 11]{8} [1 3 4 5 6 7 8 9 10 11] [1 3 4 5 6 7 8 9 10 11]{5} 2{1} [1 3 4 5 6 7 8 9 10 11]{9} [1 3 4 5 6 7 8 9 10 11] [1 3 4 5 6 7 8 9 10 11]{5} 2{1}  [1 3 4 5 6 7 8 9 10 11]*) | ([1 3 4 5 6 7 8 9 10 11]* 2{3} [1 3 4 5 6 7 8 9 10 11]{12} [1 3 4 5 6 7 8 9 10 11] 2{5} [1 3 4 5 6 7 8 9 10 11]{10} [1 3 4 5 6 7 8 9 10 11] 2{1} [1 3 4 5 6 7 8 9 10 11]{14} [1 3 4 5 6 7 8 9 10 11] 2{1} [1 3 4 5 6 7 8 9 10 11]{14} [1 3 4 5 6 7 8 9 10 11] 2{2}  [1 3 4 5 6 7 8 9 10 11]*) | ([1 3 4 5 6 7 8 9 10 11]* 2{1} [1 3 4 5 6 7 8 9 10 11]{5} [1 3 4 5 6 7 8 9 10 11] [1 3 4 5 6 7 8 9 10 11]{9} 2{1} [1 3 4 5 6 7 8 9 10 11]{5} [1 3 4 5 6 7 8 9 10 11] [1 3 4 5 6 7 8 9 10 11]{8} 2{2} [1 3 4 5 6 7 8 9 10 11]{5} [1 3 4 5 6 7 8 9 10 11] [1 3 4 5 6 7 8 9 10 11]{8} 2{2} [1 3 4 5 6 7 8 9 10 11]{2} 2{1} [1 3 4 5 6 7 8 9 10 11]{2} [1 3 4 5 6 7 8 9 10 11] [1 3 4 5 6 7 8 9 10 11]{8} 2{5}  [1 3 4 5 6 7 8 9 10 11]*) | ([1 3 4 5 6 7 8 9 10 11]* 2{2} [1 3 4 5 6 7 8 9 10 11] [1 3 4 5 6 7 8 9 10 11]{14} 2{1} [1 3 4 5 6 7 8 9 10 11] [1 3 4 5 6 7 8 9 10 11]{14} 2{1} [1 3 4 5 6 7 8 9 10 11] [1 3 4 5 6 7 8 9 10 11]{10} 2{5} [1 3 4 5 6 7 8 9 10 11] [1 3 4 5 6 7 8 9 10 11]{12} 2{3}  [1 3 4 5 6 7 8 9 10 11]*) )",
    "( ([1 2 4 5 6 7 8 9 10 11]* 3{1} [1 2 4 5 6 7 8 9 10 11]{2} [1 2 4 5 6 7 8 9 10 11] [1 2 4 5 6 7 8 9 10 11]{11} 3{2} [1 2 4 5 6 7 8 9 10 11]{2} [1 2 4 5 6 7 8 9 10 11] [1 2 4 5 6 7 8 9 10 11]{11} 3{3} [1 2 4 5 6 7 8 9 10 11]{1} [1 2 4 5 6 7 8 9 10 11] [1 2 4 5 6 7 8 9 10 11]{9} 3{6} [1 2 4 5 6 7 8 9 10 11] [1 2 4 5 6 7 8 9 10 11]{9} 3{6} [1 2 4 5 6 7 8 9 10 11] [1 2 4 5 6 7 8 9 10 11]{9} 3{6} [1 2 4 5 6 7 8 9 10 11] [1 2 4 5 6 7 8 9 10 11]{9} 3{4} [1 2 4 5 6 7 8 9 10 11]{2} [1 2 4 5 6 7 8 9 10 11] [1 2 4 5 6 7 8 9 10 11]{9} 3{4} [1 2 4 5 6 7 8 9 10 11]{2} [1 2 4 5 6 7 8 9 10 11] [1 2 4 5 6 7 8 9 10 11]{9} 3{2} [1 2 4 5 6 7 8 9 10 11]{1} 3{1} [1 2 4 5 6 7 8 9 10 11]{2} [1 2 4 5 6 7 8 9 10 11] [1 2 4 5 6 7 8 9 10 11]{9} 3{1} [1 2 4 5 6 7 8 9 10 11]{5} [1 2 4 5 6 7 8 9 10 11] [1 2 4 5 6 7 8 9 10 11]{9} 3{1}  [1 2 4 5 6 7 8 9 10 11]*) | ([1 2 4 5 6 7 8 9 10 11]* 3{8} [1 2 4 5 6 7 8 9 10 11]{5} [1 2 4 5 6 7 8 9 10 11] [1 2 4 5 6 7 8 9 10 11]{4} 3{6} [1 2 4 5 6 7 8 9 10 11]{5} [1 2 4 5 6 7 8 9 10 11] [1 2 4 5 6 7 8 9 10 11]{5} 3{7} [1 2 4 5 6 7 8 9 10 11]{3} [1 2 4 5 6 7 8 9 10 11] [1 2 4 5 6 7 8 9 10 11]{4} 3{9} [1 2 4 5 6 7 8 9 10 11]{2} [1 2 4 5 6 7 8 9 10 11] [1 2 4 5 6 7 8 9 10 11]{7} 3{4} [1 2 4 5 6 7 8 9 10 11]{4} [1 2 4 5 6 7 8 9 10 11] [1 2 4 5 6 7 8 9 10 11]{7} 3{3}  [1 2 4 5 6 7 8 9 10 11]*) | ([1 2 4 5 6 7 8 9 10 11]* 3{1} [1 2 4 5 6 7 8 9 10 11]{9} [1 2 4 5 6 7 8 9 10 11] [1 2 4 5 6 7 8 9 10 11]{5} 3{1} [1 2 4 5 6 7 8 9 10 11]{9} [1 2 4 5 6 7 8 9 10 11] [1 2 4 5 6 7 8 9 10 11]{2} 3{1} [1 2 4 5 6 7 8 9 10 11]{1} 3{2} [1 2 4 5 6 7 8 9 10 11]{9} [1 2 4 5 6 7 8 9 10 11] [1 2 4 5 6 7 8 9 10 11]{2} 3{4} [1 2 4 5 6 7 8 9 10 11]{9} [1 2 4 5 6 7 8 9 10 11] [1 2 4 5 6 7 8 9 10 11]{2} 3{4} [1 2 4 5 6 7 8 9 10 11]{9} [1 2 4 5 6 7 8 9 10 11] 3{6} [1 2 4 5 6 7 8 9 10 11]{9} [1 2 4 5 6 7 8 9 10 11] 3{6} [1 2 4 5 6 7 8 9 10 11]{9} [1 2 4 5 6 7 8 9 10 11] 3{6} [1 2 4 5 6 7 8 9 10 11]{9} [1 2 4 5 6 7 8 9 10 11] [1 2 4 5 6 7 8 9 10 11]{1} 3{3} [1 2 4 5 6 7 8 9 10 11]{11} [1 2 4 5 6 7 8 9 10 11] [1 2 4 5 6 7 8 9 10 11]{2} 3{2} [1 2 4 5 6 7 8 9 10 11]{11} [1 2 4 5 6 7 8 9 10 11] [1 2 4 5 6 7 8 9 10 11]{2} 3{1}  [1 2 4 5 6 7 8 9 10 11]*) | ([1 2 4 5 6 7 8 9 10 11]* 3{3} [1 2 4 5 6 7 8 9 10 11]{7} [1 2 4 5 6 7 8 9 10 11] [1 2 4 5 6 7 8 9 10 11]{4} 3{4} [1 2 4 5 6 7 8 9 10 11]{7} [1 2 4 5 6 7 8 9 10 11] [1 2 4 5 6 7 8 9 10 11]{2} 3{9} [1 2 4 5 6 7 8 9 10 11]{4} [1 2 4 5 6 7 8 9 10 11] [1 2 4 5 6 7 8 9 10 11]{3} 3{7} [1 2 4 5 6 7 8 9 10 11]{5} [1 2 4 5 6 7 8 9 10 11] [1 2 4 5 6 7 8 9 10 11]{5} 3{6} [1 2 4 5 6 7 8 9 10 11]{4} [1 2 4 5 6 7 8 9 10 11] [1 2 4 5 6 7 8 9 10 11]{5} 3{8}  [1 2 4 5 6 7 8 9 10 11]*) | ([1 2 4 5 6 7 8 9 10 11]* 3{1} [1 2 4 5 6 7 8 9 10 11]{12} [1 2 4 5 6 7 8 9 10 11] [1 2 4 5 6 7 8 9 10 11]{2} 3{2} [1 2 4 5 6 7 8 9 10 11]{11} [1 2 4 5 6 7 8 9 10 11] [1 2 4 5 6 7 8 9 10 11]{1} 3{3} [1 2 4 5 6 7 8 9 10 11]{11} [1 2 4 5 6 7 8 9 10 11] 3{6} [1 2 4 5 6 7 8 9 10 11]{9} [1 2 4 5 6 7 8 9 10 11] 3{6} [1 2 4 5 6 7 8 9 10 11]{9} [1 2 4 5 6 7 8 9 10 11] 3{6} [1 2 4 5 6 7 8 9 10 11]{9} [1 2 4 5 6 7 8 9 10 11] [1 2 4 5 6 7 8 9 10 11]{2} 3{4} [1 2 4 5 6 7 8 9 10 11]{9} [1 2 4 5 6 7 8 9 10 11] [1 2 4 5 6 7 8 9 10 11]{2} 3{4} [1 2 4 5 6 7 8 9 10 11]{9} [1 2 4 5 6 7 8 9 10 11] [1 2 4 5 6 7 8 9 10 11]{2} 3{1} [1 2 4 5 6 7 8 9 10 11]{1} 3{2} [1 2 4 5 6 7 8 9 10 11]{9} [1 2 4 5 6 7 8 9 10 11] [1 2 4 5 6 7 8 9 10 11]{5} 3{1} [1 2 4 5 6 7 8 9 10 11]{9} [1 2 4 5 6 7 8 9 10 11] [1 2 4 5 6 7 8 9 10 11]{5} 3{1}  [1 2 4 5 6 7 8 9 10 11]*) | ([1 2 4 5 6 7 8 9 10 11]* 3{8} [1 2 4 5 6 7 8 9 10 11]{2} [1 2 4 5 6 7 8 9 10 11] [1 2 4 5 6 7 8 9 10 11]{5} 3{6} [1 2 4 5 6 7 8 9 10 11]{4} [1 2 4 5 6 7 8 9 10 11] [1 2 4 5 6 7 8 9 10 11]{3} 3{7} [1 2 4 5 6 7 8 9 10 11]{5} [1 2 4 5 6 7 8 9 10 11] [1 2 4 5 6 7 8 9 10 11]{2} 3{9} [1 2 4 5 6 7 8 9 10 11]{4} [1 2 4 5 6 7 8 9 10 11] [1 2 4 5 6 7 8 9 10 11]{4} 3{4} [1 2 4 5 6 7 8 9 10 11]{7} [1 2 4 5 6 7 8 9 10 11] [1 2 4 5 6 7 8 9 10 11]{5} 3{3}  [1 2 4 5 6 7 8 9 10 11]*) | ([1 2 4 5 6 7 8 9 10 11]* 3{1} [1 2 4 5 6 7 8 9 10 11]{5} [1 2 4 5 6 7 8 9 10 11] [1 2 4 5 6 7 8 9 10 11]{9} 3{1} [1 2 4 5 6 7 8 9 10 11]{5} [1 2 4 5 6 7 8 9 10 11] [1 2 4 5 6 7 8 9 10 11]{9} 3{2} [1 2 4 5 6 7 8 9 10 11]{1} 3{1} [1 2 4 5 6 7 8 9 10 11]{2} [1 2 4 5 6 7 8 9 10 11] [1 2 4 5 6 7 8 9 10 11]{9} 3{4} [1 2 4 5 6 7 8 9 10 11]{2} [1 2 4 5 6 7 8 9 10 11] [1 2 4 5 6 7 8 9 10 11]{9} 3{4} [1 2 4 5 6 7 8 9 10 11]{2} [1 2 4 5 6 7 8 9 10 11] [1 2 4 5 6 7 8 9 10 11]{9} 3{6} [1 2 4 5 6 7 8 9 10 11] [1 2 4 5 6 7 8 9 10 11]{9} 3{6} [1 2 4 5 6 7 8 9 10 11] [1 2 4 5 6 7 8 9 10 11]{9} 3{6} [1 2 4 5 6 7 8 9 10 11] [1 2 4 5 6 7 8 9 10 11]{11} 3{3} [1 2 4 5 6 7 8 9 10 11]{1} [1 2 4 5 6 7 8 9 10 11] [1 2 4 5 6 7 8 9 10 11]{11} 3{2} [1 2 4 5 6 7 8 9 10 11]{2} [1 2 4 5 6 7 8 9 10 11] [1 2 4 5 6 7 8 9 10 11]{12} 3{1}  [1 2 4 5 6 7 8 9 10 11]*) | ([1 2 4 5 6 7 8 9 10 11]* 3{3} [1 2 4 5 6 7 8 9 10 11]{5} [1 2 4 5 6 7 8 9 10 11] [1 2 4 5 6 7 8 9 10 11]{7} 3{4} [1 2 4 5 6 7 8 9 10 11]{4} [1 2 4 5 6 7 8 9 10 11] [1 2 4 5 6 7 8 9 10 11]{4} 3{9} [1 2 4 5 6 7 8 9 10 11]{2} [1 2 4 5 6 7 8 9 10 11] [1 2 4 5 6 7 8 9 10 11]{5} 3{7} [1 2 4 5 6 7 8 9 10 11]{3} [1 2 4 5 6 7 8 9 10 11] [1 2 4 5 6 7 8 9 10 11]{4} 3{6} [1 2 4 5 6 7 8 9 10 11]{5} [1 2 4 5 6 7 8 9 10 11] [1 2 4 5 6 7 8 9 10 11]{2} 3{8}  [1 2 4 5 6 7 8 9 10 11]*) )",
    "( ([1 2 3 5 6 7 8 9 10 11]* 4{8} [1 2 3 5 6 7 8 9 10 11]{7} [1 2 3 5 6 7 8 9 10 11] 4{8} [1 2 3 5 6 7 8 9 10 11]{7} [1 2 3 5 6 7 8 9 10 11] 4{8} [1 2 3 5 6 7 8 9 10 11]{7} [1 2 3 5 6 7 8 9 10 11] 4{9} [1 2 3 5 6 7 8 9 10 11]{6} [1 2 3 5 6 7 8 9 10 11] [1 2 3 5 6 7 8 9 10 11]{1} 4{3} [1 2 3 5 6 7 8 9 10 11]{2} 4{2} [1 2 3 5 6 7 8 9 10 11]{7} [1 2 3 5 6 7 8 9 10 11] [1 2 3 5 6 7 8 9 10 11]{6} 4{1}  [1 2 3 5 6 7 8 9 10 11]*) | ([1 2 3 5 6 7 8 9 10 11]* 4{4} [1 2 3 5 6 7 8 9 10 11] [1 2 3 5 6 7 8 9 10 11]{10} 4{5} [1 2 3 5 6 7 8 9 10 11] [1 2 3 5 6 7 8 9 10 11]{10} 4{5} [1 2 3 5 6 7 8 9 10 11] [1 2 3 5 6 7 8 9 10 11]{10} 4{5} [1 2 3 5 6 7 8 9 10 11] [1 2 3 5 6 7 8 9 10 11]{11} 4{4} [1 2 3 5 6 7 8 9 10 11] [1 2 3 5 6 7 8 9 10 11]{11} 4{4} [1 2 3 5 6 7 8 9 10 11] [1 2 3 5 6 7 8 9 10 11]{9} 4{6} [1 2 3 5 6 7 8 9 10 11] [1 2 3 5 6 7 8 9 10 11]{10} 4{5} [1 2 3 5 6 7 8 9 10 11] [1 2 3 5 6 7 8 9 10 11]{11} 4{1}  [1 2 3 5 6 7 8 9 10 11]*) | ([1 2 3 5 6 7 8 9 10 11]* 4{1} [1 2 3 5 6 7 8 9 10 11]{6} [1 2 3 5 6 7 8 9 10 11] [1 2 3 5 6 7 8 9 10 11]{7} 4{2} [1 2 3 5 6 7 8 9 10 11]{2} 4{3} [1 2 3 5 6 7 8 9 10 11]{1} [1 2 3 5 6 7 8 9 10 11] [1 2 3 5 6 7 8 9 10 11]{6} 4{9} [1 2 3 5 6 7 8 9 10 11] [1 2 3 5 6 7 8 9 10 11]{7} 4{8} [1 2 3 5 6 7 8 9 10 11] [1 2 3 5 6 7 8 9 10 11]{7} 4{8} [1 2 3 5 6 7 8 9 10 11] [1 2 3 5 6 7 8 9 10 11]{7} 4{8}  [1 2 3 5 6 7 8 9 10 11]*) | ([1 2 3 5 6 7 8 9 10 11]* 4{1} [1 2 3 5 6 7 8 9 10 11]{11} [1 2 3 5 6 7 8 9 10 11] 4{5} [1 2 3 5 6 7 8 9 10 11]{10} [1 2 3 5 6 7 8 9 10 11] 4{6} [1 2 3 5 6 7 8 9 10 11]{9} [1 2 3 5 6 7 8 9 10 11] 4{4} [1 2 3 5 6 7 8 9 10 11]{11} [1 2 3 5 6 7 8 9 10 11] 4{4} [1 2 3 5 6 7 8 9 10 11]{11} [1 2 3 5 6 7 8 9 10 11] 4{5} [1 2 3 5 6 7 8 9 10 11]{10} [1 2 3 5 6 7 8 9 10 11] 4{5} [1 2 3 5 6 7 8 9 10 11]{10} [1 2 3 5 6 7 8 9 10 11] 4{5} [1 2 3 5 6 7 8 9 10 11]{10} [1 2 3 5 6 7 8 9 10 11] 4{4}  [1 2 3 5 6 7 8 9 10 11]*) | ([1 2 3 5 6 7 8 9 10 11]* 4{8} [1 2 3 5 6 7 8 9 10 11] [1 2 3 5 6 7 8 9 10 11]{7} 4{8} [1 2 3 5 6 7 8 9 10 11] [1 2 3 5 6 7 8 9 10 11]{7} 4{8} [1 2 3 5 6 7 8 9 10 11] [1 2 3 5 6 7 8 9 10 11]{6} 4{9} [1 2 3 5 6 7 8 9 10 11] [1 2 3 5 6 7 8 9 10 11]{7} 4{2} [1 2 3 5 6 7 8 9 10 11]{2} 4{3} [1 2 3 5 6 7 8 9 10 11]{1} [1 2 3 5 6 7 8 9 10 11] [1 2 3 5 6 7 8 9 10 11]{8} 4{1}  [1 2 3 5 6 7 8 9 10 11]*) | ([1 2 3 5 6 7 8 9 10 11]* 4{4} [1 2 3 5 6 7 8 9 10 11]{11} [1 2 3 5 6 7 8 9 10 11] 4{5} [1 2 3 5 6 7 8 9 10 11]{10} [1 2 3 5 6 7 8 9 10 11] 4{5} [1 2 3 5 6 7 8 9 10 11]{10} [1 2 3 5 6 7 8 9 10 11] 4{5} [1 2 3 5 6 7 8 9 10 11]{10} [1 2 3 5 6 7 8 9 10 11] 4{4} [1 2 3 5 6 7 8 9 10 11]{11} [1 2 3 5 6 7 8 9 10 11] 4{4} [1 2 3 5 6 7 8 9 10 11]{11} [1 2 3 5 6 7 8 9 10 11] 4{6} [1 2 3 5 6 7 8 9 10 11]{9} [1 2 3 5 6 7 8 9 10 11] 4{5} [1 2 3 5 6 7 8 9 10 11]{10} [1 2 3 5 6 7 8 9 10 11] [1 2 3 5 6 7 8 9 10 11]{3} 4{1}  [1 2 3 5 6 7 8 9 10 11]*) | ([1 2 3 5 6 7 8 9 10 11]* 4{1} [1 2 3 5 6 7 8 9 10 11]{8} [1 2 3 5 6 7 8 9 10 11] [1 2 3 5 6 7 8 9 10 11]{1} 4{3} [1 2 3 5 6 7 8 9 10 11]{2} 4{2} [1 2 3 5 6 7 8 9 10 11]{7} [1 2 3 5 6 7 8 9 10 11] 4{9} [1 2 3 5 6 7 8 9 10 11]{6} [1 2 3 5 6 7 8 9 10 11] 4{8} [1 2 3 5 6 7 8 9 10 11]{7} [1 2 3 5 6 7 8 9 10 11] 4{8} [1 2 3 5 6 7 8 9 10 11]{7} [1 2 3 5 6 7 8 9 10 11] 4{8}  [1 2 3 5 6 7 8 9 10 11]*) | ([1 2 3 5 6 7 8 9 10 11]* 4{1} [1 2 3 5 6 7 8 9 10 11]{3} [1 2 3 5 6 7 8 9 10 11] [1 2 3 5 6 7 8 9 10 11]{10} 4{5} [1 2 3 5 6 7 8 9 10 11] [1 2 3 5 6 7 8 9 10 11]{9} 4{6} [1 2 3 5 6 7 8 9 10 11] [1 2 3 5 6 7 8 9 10 11]{11} 4{4} [1 2 3 5 6 7 8 9 10 11] [1 2 3 5 6 7 8 9 10 11]{11} 4{4} [1 2 3 5 6 7 8 9 10 11] [1 2 3 5 6 7 8 9 10 11]{10} 4{5} [1 2 3 5 6 7 8 9 10 11] [1 2 3 5 6 7 8 9 10 11]{10} 4{5} [1 2 3 5 6 7 8 9 10 11] [1 2 3 5 6 7 8 9 10 11]{10} 4{5} [1 2 3 5 6 7 8 9 10 11] [1 2 3 5 6 7 8 9 10 11]{11} 4{4}  [1 2 3 5 6 7 8 9 10 11]*) )",
    "( ([1 2 3 4 6 7 8 9 10 11]* 5{2} [1 2 3 4 6 7 8 9 10 11] [1 2 3 4 6 7 8 9 10 11]{13} 5{2} [1 2 3 4 6 7 8 9 10 11] [1 2 3 4 6 7 8 9 10 11]{13} 5{2} [1 2 3 4 6 7 8 9 10 11] [1 2 3 4 6 7 8 9 10 11]{13} 5{2} [1 2 3 4 6 7 8 9 10 11] [1 2 3 4 6 7 8 9 10 11]{14} 5{1}  [1 2 3 4 6 7 8 9 10 11]*) | ([1 2 3 4 6 7 8 9 10 11]* 5{4} [1 2 3 4 6 7 8 9 10 11] [1 2 3 4 6 7 8 9 10 11]{10} 5{5}  [1 2 3 4 6 7 8 9 10 11]*) | ([1 2 3 4 6 7 8 9 10 11]* 5{1} [1 2 3 4 6 7 8 9 10 11]{14} [1 2 3 4 6 7 8 9 10 11] 5{2} [1 2 3 4 6 7 8 9 10 11]{13} [1 2 3 4 6 7 8 9 10 11] 5{2} [1 2 3 4 6 7 8 9 10 11]{13} [1 2 3 4 6 7 8 9 10 11] 5{2} [1 2 3 4 6 7 8 9 10 11]{13} [1 2 3 4 6 7 8 9 10 11] 5{2}  [1 2 3 4 6 7 8 9 10 11]*) | ([1 2 3 4 6 7 8 9 10 11]* 5{5} [1 2 3 4 6 7 8 9 10 11]{10} [1 2 3 4 6 7 8 9 10 11] 5{4}  [1 2 3 4 6 7 8 9 10 11]*) | ([1 2 3 4 6 7 8 9 10 11]* 5{2} [1 2 3 4 6 7 8 9 10 11]{13} [1 2 3 4 6 7 8 9 10 11] 5{2} [1 2 3 4 6 7 8 9 10 11]{13} [1 2 3 4 6 7 8 9 10 11] 5{2} [1 2 3 4 6 7 8 9 10 11]{13} [1 2 3 4 6 7 8 9 10 11] 5{2} [1 2 3 4 6 7 8 9 10 11]{13} [1 2 3 4 6 7 8 9 10 11] 5{1}  [1 2 3 4 6 7 8 9 10 11]*) | ([1 2 3 4 6 7 8 9 10 11]* 5{4} [1 2 3 4 6 7 8 9 10 11]{11} [1 2 3 4 6 7 8 9 10 11] 5{5}  [1 2 3 4 6 7 8 9 10 11]*) | ([1 2 3 4 6 7 8 9 10 11]* 5{1} [1 2 3 4 6 7 8 9 10 11] [1 2 3 4 6 7 8 9 10 11]{13} 5{2} [1 2 3 4 6 7 8 9 10 11] [1 2 3 4 6 7 8 9 10 11]{13} 5{2} [1 2 3 4 6 7 8 9 10 11] [1 2 3 4 6 7 8 9 10 11]{13} 5{2} [1 2 3 4 6 7 8 9 10 11] [1 2 3 4 6 7 8 9 10 11]{13} 5{2}  [1 2 3 4 6 7 8 9 10 11]*) | ([1 2 3 4 6 7 8 9 10 11]* 5{5} [1 2 3 4 6 7 8 9 10 11] [1 2 3 4 6 7 8 9 10 11]{11} 5{4}  [1 2 3 4 6 7 8 9 10 11]*) )",
    "( ([1 2 3 4 5 7 8 9 10 11]* 6{1} [1 2 3 4 5 7 8 9 10 11]{1} 6{1} [1 2 3 4 5 7 8 9 10 11]{1} [1 2 3 4 5 7 8 9 10 11] [1 2 3 4 5 7 8 9 10 11]{10} 6{5} [1 2 3 4 5 7 8 9 10 11] [1 2 3 4 5 7 8 9 10 11]{10} 6{5} [1 2 3 4 5 7 8 9 10 11] [1 2 3 4 5 7 8 9 10 11]{8} 6{7} [1 2 3 4 5 7 8 9 10 11] [1 2 3 4 5 7 8 9 10 11]{7} 6{8}  [1 2 3 4 5 7 8 9 10 11]*) | ([1 2 3 4 5 7 8 9 10 11]* 6{1} [1 2 3 4 5 7 8 9 10 11]{14} [1 2 3 4 5 7 8 9 10 11] 6{2} [1 2 3 4 5 7 8 9 10 11]{13} [1 2 3 4 5 7 8 9 10 11] 6{2} [1 2 3 4 5 7 8 9 10 11]{13} [1 2 3 4 5 7 8 9 10 11] 6{4} [1 2 3 4 5 7 8 9 10 11]{11} [1 2 3 4 5 7 8 9 10 11] 6{5} [1 2 3 4 5 7 8 9 10 11]{10} [1 2 3 4 5 7 8 9 10 11] 6{4} [1 2 3 4 5 7 8 9 10 11]{11} [1 2 3 4 5 7 8 9 10 11] 6{5} [1 2 3 4 5 7 8 9 10 11]{10} [1 2 3 4 5 7 8 9 10 11] 6{4}  [1 2 3 4 5 7 8 9 10 11]*) | ([1 2 3 4 5 7 8 9 10 11]* 6{8} [1 2 3 4 5 7 8 9 10 11]{7} [1 2 3 4 5 7 8 9 10 11] 6{7} [1 2 3 4 5 7 8 9 10 11]{8} [1 2 3 4 5 7 8 9 10 11] 6{5} [1 2 3 4 5 7 8 9 10 11]{10} [1 2 3 4 5 7 8 9 10 11] 6{5} [1 2 3 4 5 7 8 9 10 11]{10} [1 2 3 4 5 7 8 9 10 11] [1 2 3 4 5 7 8 9 10 11]{1} 6{1} [1 2 3 4 5 7 8 9 10 11]{1} 6{1}  [1 2 3 4 5 7 8 9 10 11]*) | ([1 2 3 4 5 7 8 9 10 11]* 6{4} [1 2 3 4 5 7 8 9 10 11] [1 2 3 4 5 7 8 9 10 11]{10} 6{5} [1 2 3 4 5 7 8 9 10 11] [1 2 3 4 5 7 8 9 10 11]{11} 6{4} [1 2 3 4 5 7 8 9 10 11] [1 2 3 4 5 7 8 9 10 11]{10} 6{5} [1 2 3 4 5 7 8 9 10 11] [1 2 3 4 5 7 8 9 10 11]{11} 6{4} [1 2 3 4 5 7 8 9 10 11] [1 2 3 4 5 7 8 9 10 11]{13} 6{2} [1 2 3 4 5 7 8 9 10 11] [1 2 3 4 5 7 8 9 10 11]{13} 6{2} [1 2 3 4 5 7 8 9 10 11] [1 2 3 4 5 7 8 9 10 11]{14} 6{1}  [1 2 3 4 5 7 8 9 10 11]*) | ([1 2 3 4 5 7 8 9 10 11]* 6{1} [1 2 3 4 5 7 8 9 10 11]{1} 6{1} [1 2 3 4 5 7 8 9 10 11]{11} [1 2 3 4 5 7 8 9 10 11] 6{5} [1 2 3 4 5 7 8 9 10 11]{10} [1 2 3 4 5 7 8 9 10 11] 6{5} [1 2 3 4 5 7 8 9 10 11]{10} [1 2 3 4 5 7 8 9 10 11] 6{7} [1 2 3 4 5 7 8 9 10 11]{8} [1 2 3 4 5 7 8 9 10 11] 6{8}  [1 2 3 4 5 7 8 9 10 11]*) | ([1 2 3 4 5 7 8 9 10 11]* 6{1} [1 2 3 4 5 7 8 9 10 11] [1 2 3 4 5 7 8 9 10 11]{13} 6{2} [1 2 3 4 5 7 8 9 10 11] [1 2 3 4 5 7 8 9 10 11]{13} 6{2} [1 2 3 4 5 7 8 9 10 11] [1 2 3 4 5 7 8 9 10 11]{11} 6{4} [1 2 3 4 5 7 8 9 10 11] [1 2 3 4 5 7 8 9 10 11]{10} 6{5} [1 2 3 4 5 7 8 9 10 11] [1 2 3 4 5 7 8 9 10 11]{11} 6{4} [1 2 3 4 5 7 8 9 10 11] [1 2 3 4 5 7 8 9 10 11]{10} 6{5} [1 2 3 4 5 7 8 9 10 11] [1 2 3 4 5 7 8 9 10 11]{11} 6{4}  [1 2 3 4 5 7 8 9 10 11]*) | ([1 2 3 4 5 7 8 9 10 11]* 6{8} [1 2 3 4 5 7 8 9 10 11] [1 2 3 4 5 7 8 9 10 11]{8} 6{7} [1 2 3 4 5 7 8 9 10 11] [1 2 3 4 5 7 8 9 10 11]{10} 6{5} [1 2 3 4 5 7 8 9 10 11] [1 2 3 4 5 7 8 9 10 11]{10} 6{5} [1 2 3 4 5 7 8 9 10 11] [1 2 3 4 5 7 8 9 10 11]{11} 6{1} [1 2 3 4 5 7 8 9 10 11]{1} 6{1}  [1 2 3 4 5 7 8 9 10 11]*) | ([1 2 3 4 5 7 8 9 10 11]* 6{4} [1 2 3 4 5 7 8 9 10 11]{11} [1 2 3 4 5 7 8 9 10 11] 6{5} [1 2 3 4 5 7 8 9 10 11]{10} [1 2 3 4 5 7 8 9 10 11] 6{4} [1 2 3 4 5 7 8 9 10 11]{11} [1 2 3 4 5 7 8 9 10 11] 6{5} [1 2 3 4 5 7 8 9 10 11]{10} [1 2 3 4 5 7 8 9 10 11] 6{4} [1 2 3 4 5 7 8 9 10 11]{11} [1 2 3 4 5 7 8 9 10 11] 6{2} [1 2 3 4 5 7 8 9 10 11]{13} [1 2 3 4 5 7 8 9 10 11] 6{2} [1 2 3 4 5 7 8 9 10 11]{13} [1 2 3 4 5 7 8 9 10 11] 6{1}  [1 2 3 4 5 7 8 9 10 11]*) )",
    "( ([1 2 3 4 5 6 8 9 10 11]* 7{1} [1 2 3 4 5 6 8 9 10 11]{6} [1 2 3 4 5 6 8 9 10 11] [1 2 3 4 5 6 8 9 10 11]{7} 7{2} [1 2 3 4 5 6 8 9 10 11]{6} [1 2 3 4 5 6 8 9 10 11] [1 2 3 4 5 6 8 9 10 11]{7} 7{2} [1 2 3 4 5 6 8 9 10 11]{6} [1 2 3 4 5 6 8 9 10 11] [1 2 3 4 5 6 8 9 10 11]{5} 7{4} [1 2 3 4 5 6 8 9 10 11]{6} [1 2 3 4 5 6 8 9 10 11] [1 2 3 4 5 6 8 9 10 11]{5} 7{4} [1 2 3 4 5 6 8 9 10 11]{6} [1 2 3 4 5 6 8 9 10 11] [1 2 3 4 5 6 8 9 10 11]{4} 7{5} [1 2 3 4 5 6 8 9 10 11]{6} [1 2 3 4 5 6 8 9 10 11] [1 2 3 4 5 6 8 9 10 11]{4} 7{5} [1 2 3 4 5 6 8 9 10 11]{6} [1 2 3 4 5 6 8 9 10 11] [1 2 3 4 5 6 8 9 10 11]{3} 7{6} [1 2 3 4 5 6 8 9 10 11]{6} [1 2 3 4 5 6 8 9 10 11] [1 2 3 4 5 6 8 9 10 11]{4} 7{5} [1 2 3 4 5 6 8 9 10 11]{6} [1 2 3 4 5 6 8 9 10 11] [1 2 3 4 5 6 8 9 10 11]{5} 7{3} [1 2 3 4 5 6 8 9 10 11]{7} [1 2 3 4 5 6 8 9 10 11] [1 2 3 4 5 6 8 9 10 11]{6} 7{1}  [1 2 3 4 5 6 8 9 10 11]*) | ([1 2 3 4 5 6 8 9 10 11]* 7{1} [1 2 3 4 5 6 8 9 10 11]{11} [1 2 3 4 5 6 8 9 10 11] [1 2 3 4 5 6 8 9 10 11]{2} 7{4} [1 2 3 4 5 6 8 9 10 11]{9} [1 2 3 4 5 6 8 9 10 11] [1 2 3 4 5 6 8 9 10 11]{1} 7{7} [1 2 3 4 5 6 8 9 10 11]{7} [1 2 3 4 5 6 8 9 10 11] 7{8} [1 2 3 4 5 6 8 9 10 11]{7} [1 2 3 4 5 6 8 9 10 11] [1 2 3 4 5 6 8 9 10 11]{1} 7{9} [1 2 3 4 5 6 8 9 10 11]{5} [1 2 3 4 5 6 8 9 10 11] [1 2 3 4 5 6 8 9 10 11]{2} 7{9}  [1 2 3 4 5 6 8 9 10 11]*) | ([1 2 3 4 5 6 8 9 10 11]* 7{1} [1 2 3 4 5 6 8 9 10 11]{6} [1 2 3 4 5 6 8 9 10 11] [1 2 3 4 5 6 8 9 10 11]{7} 7{3} [1 2 3 4 5 6 8 9 10 11]{5} [1 2 3 4 5 6 8 9 10 11] [1 2 3 4 5 6 8 9 10 11]{6} 7{5} [1 2 3 4 5 6 8 9 10 11]{4} [1 2 3 4 5 6 8 9 10 11] [1 2 3 4 5 6 8 9 10 11]{6} 7{6} [1 2 3 4 5 6 8 9 10 11]{3} [1 2 3 4 5 6 8 9 10 11] [1 2 3 4 5 6 8 9 10 11]{6} 7{5} [1 2 3 4 5 6 8 9 10 11]{4} [1 2 3 4 5 6 8 9 10 11] [1 2 3 4 5 6 8 9 10 11]{6} 7{5} [1 2 3 4 5 6 8 9 10 11]{4} [1 2 3 4 5 6 8 9 10 11] [1 2 3 4 5 6 8 9 10 11]{6} 7{4} [1 2 3 4 5 6 8 9 10 11]{5} [1 2 3 4 5 6 8 9 10 11] [1 2 3 4 5 6 8 9 10 11]{6} 7{4} [1 2 3 4 5 6 8 9 10 11]{5} [1 2 3 4 5 6 8 9 10 11] [1 2 3 4 5 6 8 9 10 11]{6} 7{2} [1 2 3 4 5 6 8 9 10 11]{7} [1 2 3 4 5 6 8 9 10 11] [1 2 3 4 5 6 8 9 10 11]{6} 7{2} [1 2 3 4 5 6 8 9 10 11]{7} [1 2 3 4 5 6 8 9 10 11] [1 2 3 4 5 6 8 9 10 11]{6} 7{1}  [1 2 3 4 5 6 8 9 10 11]*) | ([1 2 3 4 5 6 8 9 10 11]* 7{9} [1 2 3 4 5 6 8 9 10 11]{2} [1 2 3 4 5 6 8 9 10 11] [1 2 3 4 5 6 8 9 10 11]{5} 7{9} [1 2 3 4 5 6 8 9 10 11]{1} [1 2 3 4 5 6 8 9 10 11] [1 2 3 4 5 6 8 9 10 11]{7} 7{8} [1 2 3 4 5 6 8 9 10 11] [1 2 3 4 5 6 8 9 10 11]{7} 7{7} [1 2 3 4 5 6 8 9 10 11]{1} [1 2 3 4 5 6 8 9 10 11] [1 2 3 4 5 6 8 9 10 11]{9} 7{4} [1 2 3 4 5 6 8 9 10 11]{2} [1 2 3 4 5 6 8 9 10 11] [1 2 3 4 5 6 8 9 10 11]{11} 7{1}  [1 2 3 4 5 6 8 9 10 11]*) | ([1 2 3 4 5 6 8 9 10 11]* 7{1} [1 2 3 4 5 6 8 9 10 11]{8} [1 2 3 4 5 6 8 9 10 11] [1 2 3 4 5 6 8 9 10 11]{6} 7{2} [1 2 3 4 5 6 8 9 10 11]{7} [1 2 3 4 5 6 8 9 10 11] [1 2 3 4 5 6 8 9 10 11]{6} 7{2} [1 2 3 4 5 6 8 9 10 11]{7} [1 2 3 4 5 6 8 9 10 11] [1 2 3 4 5 6 8 9 10 11]{6} 7{4} [1 2 3 4 5 6 8 9 10 11]{5} [1 2 3 4 5 6 8 9 10 11] [1 2 3 4 5 6 8 9 10 11]{6} 7{4} [1 2 3 4 5 6 8 9 10 11]{5} [1 2 3 4 5 6 8 9 10 11] [1 2 3 4 5 6 8 9 10 11]{6} 7{5} [1 2 3 4 5 6 8 9 10 11]{4} [1 2 3 4 5 6 8 9 10 11] [1 2 3 4 5 6 8 9 10 11]{6} 7{5} [1 2 3 4 5 6 8 9 10 11]{4} [1 2 3 4 5 6 8 9 10 11] [1 2 3 4 5 6 8 9 10 11]{6} 7{6} [1 2 3 4 5 6 8 9 10 11]{3} [1 2 3 4 5 6 8 9 10 11] [1 2 3 4 5 6 8 9 10 11]{6} 7{5} [1 2 3 4 5 6 8 9 10 11]{4} [1 2 3 4 5 6 8 9 10 11] [1 2 3 4 5 6 8 9 10 11]{7} 7{3} [1 2 3 4 5 6 8 9 10 11]{5} [1 2 3 4 5 6 8 9 10 11] [1 2 3 4 5 6 8 9 10 11]{8} 7{1}  [1 2 3 4 5 6 8 9 10 11]*) | ([1 2 3 4 5 6 8 9 10 11]* 7{1} [1 2 3 4 5 6 8 9 10 11]{3} [1 2 3 4 5 6 8 9 10 11] [1 2 3 4 5 6 8 9 10 11]{9} 7{4} [1 2 3 4 5 6 8 9 10 11]{2} [1 2 3 4 5 6 8 9 10 11] [1 2 3 4 5 6 8 9 10 11]{7} 7{7} [1 2 3 4 5 6 8 9 10 11]{1} [1 2 3 4 5 6 8 9 10 11] [1 2 3 4 5 6 8 9 10 11]{7} 7{8} [1 2 3 4 5 6 8 9 10 11] [1 2 3 4 5 6 8 9 10 11]{5} 7{9} [1 2 3 4 5 6 8 9 10 11]{1} [1 2 3 4 5 6 8 9 10 11] [1 2 3 4 5 6 8 9 10 11]{4} 7{9}  [1 2 3 4 5 6 8 9 10 11]*) | ([1 2 3 4 5 6 8 9 10 11]* 7{1} [1 2 3 4 5 6 8 9 10 11]{8} [1 2 3 4 5 6 8 9 10 11] [1 2 3 4 5 6 8 9 10 11]{5} 7{3} [1 2 3 4 5 6 8 9 10 11]{7} [1 2 3 4 5 6 8 9 10 11] [1 2 3 4 5 6 8 9 10 11]{4} 7{5} [1 2 3 4 5 6 8 9 10 11]{6} [1 2 3 4 5 6 8 9 10 11] [1 2 3 4 5 6 8 9 10 11]{3} 7{6} [1 2 3 4 5 6 8 9 10 11]{6} [1 2 3 4 5 6 8 9 10 11] [1 2 3 4 5 6 8 9 10 11]{4} 7{5} [1 2 3 4 5 6 8 9 10 11]{6} [1 2 3 4 5 6 8 9 10 11] [1 2 3 4 5 6 8 9 10 11]{4} 7{5} [1 2 3 4 5 6 8 9 10 11]{6} [1 2 3 4 5 6 8 9 10 11] [1 2 3 4 5 6 8 9 10 11]{5} 7{4} [1 2 3 4 5 6 8 9 10 11]{6} [1 2 3 4 5 6 8 9 10 11] [1 2 3 4 5 6 8 9 10 11]{5} 7{4} [1 2 3 4 5 6 8 9 10 11]{6} [1 2 3 4 5 6 8 9 10 11] [1 2 3 4 5 6 8 9 10 11]{7} 7{2} [1 2 3 4 5 6 8 9 10 11]{6} [1 2 3 4 5 6 8 9 10 11] [1 2 3 4 5 6 8 9 10 11]{7} 7{2} [1 2 3 4 5 6 8 9 10 11]{6} [1 2 3 4 5 6 8 9 10 11] [1 2 3 4 5 6 8 9 10 11]{8} 7{1}  [1 2 3 4 5 6 8 9 10 11]*) | ([1 2 3 4 5 6 8 9 10 11]* 7{9} [1 2 3 4 5 6 8 9 10 11]{4} [1 2 3 4 5 6 8 9 10 11] [1 2 3 4 5 6 8 9 10 11]{1} 7{9} [1 2 3 4 5 6 8 9 10 11]{5} [1 2 3 4 5 6 8 9 10 11] 7{8} [1 2 3 4 5 6 8 9 10 11]{7} [1 2 3 4 5 6 8 9 10 11] [1 2 3 4 5 6 8 9 10 11]{1} 7{7} [1 2 3 4 5 6 8 9 10 11]{7} [1 2 3 4 5 6 8 9 10 11] [1 2 3 4 5 6 8 9 10 11]{2} 7{4} [1 2 3 4 5 6 8 9 10 11]{9} [1 2 3 4 5 6 8 9 10 11] [1 2 3 4 5 6 8 9 10 11]{3} 7{1}  [1 2 3 4 5 6 8 9 10 11]*) )",
    "( ([1 2 3 4 5 6 7 9 10 11]* 8{2} [1 2 3 4 5 6 7 9 10 11] [1 2 3 4 5 6 7 9 10 11]{13} 8{2} [1 2 3 4 5 6 7 9 10 11] [1 2 3 4 5 6 7 9 10 11]{14} 8{1}  [1 2 3 4 5 6 7 9 10 11]*) | ([1 2 3 4 5 6 7 9 10 11]* 8{2} [1 2 3 4 5 6 7 9 10 11]{8} [1 2 3 4 5 6 7 9 10 11] [1 2 3 4 5 6 7 9 10 11]{4} 8{3}  [1 2 3 4 5 6 7 9 10 11]*) | ([1 2 3 4 5 6 7 9 10 11]* 8{1} [1 2 3 4 5 6 7 9 10 11]{14} [1 2 3 4 5 6 7 9 10 11] 8{2} [1 2 3 4 5 6 7 9 10 11]{13} [1 2 3 4 5 6 7 9 10 11] 8{2}  [1 2 3 4 5 6 7 9 10 11]*) | ([1 2 3 4 5 6 7 9 10 11]* 8{3} [1 2 3 4 5 6 7 9 10 11]{4} [1 2 3 4 5 6 7 9 10 11] [1 2 3 4 5 6 7 9 10 11]{8} 8{2}  [1 2 3 4 5 6 7 9 10 11]*) | ([1 2 3 4 5 6 7 9 10 11]* 8{2} [1 2 3 4 5 6 7 9 10 11]{13} [1 2 3 4 5 6 7 9 10 11] 8{2} [1 2 3 4 5 6 7 9 10 11]{13} [1 2 3 4 5 6 7 9 10 11] 8{1}  [1 2 3 4 5 6 7 9 10 11]*) | ([1 2 3 4 5 6 7 9 10 11]* 8{2} [1 2 3 4 5 6 7 9 10 11]{5} [1 2 3 4 5 6 7 9 10 11] [1 2 3 4 5 6 7 9 10 11]{8} 8{3}  [1 2 3 4 5 6 7 9 10 11]*) | ([1 2 3 4 5 6 7 9 10 11]* 8{1} [1 2 3 4 5 6 7 9 10 11] [1 2 3 4 5 6 7 9 10 11]{13} 8{2} [1 2 3 4 5 6 7 9 10 11] [1 2 3 4 5 6 7 9 10 11]{13} 8{2}  [1 2 3 4 5 6 7 9 10 11]*) | ([1 2 3 4 5 6 7 9 10 11]* 8{3} [1 2 3 4 5 6 7 9 10 11]{8} [1 2 3 4 5 6 7 9 10 11] [1 2 3 4 5 6 7 9 10 11]{5} 8{2}  [1 2 3 4 5 6 7 9 10 11]*) )",
    "( ([1 2 3 4 5 6 7 8 10 11]* 9{2} [1 2 3 4 5 6 7 8 10 11]{9} [1 2 3 4 5 6 7 8 10 11] [1 2 3 4 5 6 7 8 10 11]{2} 9{4} [1 2 3 4 5 6 7 8 10 11]{9} [1 2 3 4 5 6 7 8 10 11] [1 2 3 4 5 6 7 8 10 11]{3} 9{4} [1 2 3 4 5 6 7 8 10 11]{8} [1 2 3 4 5 6 7 8 10 11] [1 2 3 4 5 6 7 8 10 11]{4} 9{1}  [1 2 3 4 5 6 7 8 10 11]*) | ([1 2 3 4 5 6 7 8 10 11]* 9{1} [1 2 3 4 5 6 7 8 10 11]{5} [1 2 3 4 5 6 7 8 10 11] [1 2 3 4 5 6 7 8 10 11]{8} 9{2} [1 2 3 4 5 6 7 8 10 11]{5} [1 2 3 4 5 6 7 8 10 11] [1 2 3 4 5 6 7 8 10 11]{7} 9{4} [1 2 3 4 5 6 7 8 10 11]{4} [1 2 3 4 5 6 7 8 10 11] [1 2 3 4 5 6 7 8 10 11]{8} 9{3} [1 2 3 4 5 6 7 8 10 11]{4} [1 2 3 4 5 6 7 8 10 11] [1 2 3 4 5 6 7 8 10 11]{8} 9{1}  [1 2 3 4 5 6 7 8 10 11]*) | ([1 2 3 4 5 6 7 8 10 11]* 9{1} [1 2 3 4 5 6 7 8 10 11]{4} [1 2 3 4 5 6 7 8 10 11] [1 2 3 4 5 6 7 8 10 11]{8} 9{4} [1 2 3 4 5 6 7 8 10 11]{3} [1 2 3 4 5 6 7 8 10 11] [1 2 3 4 5 6 7 8 10 11]{9} 9{4} [1 2 3 4 5 6 7 8 10 11]{2} [1 2 3 4 5 6 7 8 10 11] [1 2 3 4 5 6 7 8 10 11]{9} 9{2}  [1 2 3 4 5 6 7 8 10 11]*) | ([1 2 3 4 5 6 7 8 10 11]* 9{1} [1 2 3 4 5 6 7 8 10 11]{8} [1 2 3 4 5 6 7 8 10 11] [1 2 3 4 5 6 7 8 10 11]{4} 9{3} [1 2 3 4 5 6 7 8 10 11]{8} [1 2 3 4 5 6 7 8 10 11] [1 2 3 4 5 6 7 8 10 11]{4} 9{4} [1 2 3 4 5 6 7 8 10 11]{7} [1 2 3 4 5 6 7 8 10 11] [1 2 3 4 5 6 7 8 10 11]{5} 9{2} [1 2 3 4 5 6 7 8 10 11]{8} [1 2 3 4 5 6 7 8 10 11] [1 2 3 4 5 6 7 8 10 11]{5} 9{1}  [1 2 3 4 5 6 7 8 10 11]*) | ([1 2 3 4 5 6 7 8 10 11]* 9{2} [1 2 3 4 5 6 7 8 10 11]{4} [1 2 3 4 5 6 7 8 10 11] [1 2 3 4 5 6 7 8 10 11]{9} 9{4} [1 2 3 4 5 6 7 8 10 11]{2} [1 2 3 4 5 6 7 8 10 11] [1 2 3 4 5 6 7 8 10 11]{8} 9{4} [1 2 3 4 5 6 7 8 10 11]{3} [1 2 3 4 5 6 7 8 10 11] [1 2 3 4 5 6 7 8 10 11]{10} 9{1}  [1 2 3 4 5 6 7 8 10 11]*) | ([1 2 3 4 5 6 7 8 10 11]* 9{1} [1 2 3 4 5 6 7 8 10 11]{9} [1 2 3 4 5 6 7 8 10 11] [1 2 3 4 5 6 7 8 10 11]{5} 9{2} [1 2 3 4 5 6 7 8 10 11]{8} [1 2 3 4 5 6 7 8 10 11] [1 2 3 4 5 6 7 8 10 11]{4} 9{4} [1 2 3 4 5 6 7 8 10 11]{7} [1 2 3 4 5 6 7 8 10 11] [1 2 3 4 5 6 7 8 10 11]{4} 9{3} [1 2 3 4 5 6 7 8 10 11]{8} [1 2 3 4 5 6 7 8 10 11] [1 2 3 4 5 6 7 8 10 11]{6} 9{1}  [1 2 3 4 5 6 7 8 10 11]*) | ([1 2 3 4 5 6 7 8 10 11]* 9{1} [1 2 3 4 5 6 7 8 10 11]{10} [1 2 3 4 5 6 7 8 10 11] [1 2 3 4 5 6 7 8 10 11]{3} 9{4} [1 2 3 4 5 6 7 8 10 11]{8} [1 2 3 4 5 6 7 8 10 11] [1 2 3 4 5 6 7 8 10 11]{2} 9{4} [1 2 3 4 5 6 7 8 10 11]{9} [1 2 3 4 5 6 7 8 10 11] [1 2 3 4 5 6 7 8 10 11]{4} 9{2}  [1 2 3 4 5 6 7 8 10 11]*) | ([1 2 3 4 5 6 7 8 10 11]* 9{1} [1 2 3 4 5 6 7 8 10 11]{6} [1 2 3 4 5 6 7 8 10 11] [1 2 3 4 5 6 7 8 10 11]{8} 9{3} [1 2 3 4 5 6 7 8 10 11]{4} [1 2 3 4 5 6 7 8 10 11] [1 2 3 4 5 6 7 8 10 11]{7} 9{4} [1 2 3 4 5 6 7 8 10 11]{4} [1 2 3 4 5 6 7 8 10 11] [1 2 3 4 5 6 7 8 10 11]{8} 9{2} [1 2 3 4 5 6 7 8 10 11]{5} [1 2 3 4 5 6 7 8 10 11] [1 2 3 4 5 6 7 8 10 11]{9} 9{1}  [1 2 3 4 5 6 7 8 10 11]*) )",
    "( ([1 2 3 4 5 6 7 8 9 11]* 10{2} [1 2 3 4 5 6 7 8 9 11]{3} [1 2 3 4 5 6 7 8 9 11] [1 2 3 4 5 6 7 8 9 11]{10} 10{2} [1 2 3 4 5 6 7 8 9 11]{3} [1 2 3 4 5 6 7 8 9 11] [1 2 3 4 5 6 7 8 9 11]{10} 10{1} [1 2 3 4 5 6 7 8 9 11]{4} [1 2 3 4 5 6 7 8 9 11] [1 2 3 4 5 6 7 8 9 11]{10} 10{1}  [1 2 3 4 5 6 7 8 9 11]*) | ([1 2 3 4 5 6 7 8 9 11]* 10{4} [1 2 3 4 5 6 7 8 9 11]{1} [1 2 3 4 5 6 7 8 9 11] [1 2 3 4 5 6 7 8 9 11]{12} 10{2}  [1 2 3 4 5 6 7 8 9 11]*) | ([1 2 3 4 5 6 7 8 9 11]* 10{1} [1 2 3 4 5 6 7 8 9 11]{10} [1 2 3 4 5 6 7 8 9 11] [1 2 3 4 5 6 7 8 9 11]{4} 10{1} [1 2 3 4 5 6 7 8 9 11]{10} [1 2 3 4 5 6 7 8 9 11] [1 2 3 4 5 6 7 8 9 11]{3} 10{2} [1 2 3 4 5 6 7 8 9 11]{10} [1 2 3 4 5 6 7 8 9 11] [1 2 3 4 5 6 7 8 9 11]{3} 10{2}  [1 2 3 4 5 6 7 8 9 11]*) | ([1 2 3 4 5 6 7 8 9 11]* 10{2} [1 2 3 4 5 6 7 8 9 11]{12} [1 2 3 4 5 6 7 8 9 11] [1 2 3 4 5 6 7 8 9 11]{1} 10{4}  [1 2 3 4 5 6 7 8 9 11]*) | ([1 2 3 4 5 6 7 8 9 11]* 10{2} [1 2 3 4 5 6 7 8 9 11]{10} [1 2 3 4 5 6 7 8 9 11] [1 2 3 4 5 6 7 8 9 11]{3} 10{2} [1 2 3 4 5 6 7 8 9 11]{10} [1 2 3 4 5 6 7 8 9 11] [1 2 3 4 5 6 7 8 9 11]{4} 10{1} [1 2 3 4 5 6 7 8 9 11]{10} [1 2 3 4 5 6 7 8 9 11] [1 2 3 4 5 6 7 8 9 11]{4} 10{1}  [1 2 3 4 5 6 7 8 9 11]*) | ([1 2 3 4 5 6 7 8 9 11]* 10{4} [1 2 3 4 5 6 7 8 9 11]{10} [1 2 3 4 5 6 7 8 9 11] [1 2 3 4 5 6 7 8 9 11]{1} 10{2}  [1 2 3 4 5 6 7 8 9 11]*) | ([1 2 3 4 5 6 7 8 9 11]* 10{1} [1 2 3 4 5 6 7 8 9 11]{4} [1 2 3 4 5 6 7 8 9 11] [1 2 3 4 5 6 7 8 9 11]{10} 10{1} [1 2 3 4 5 6 7 8 9 11]{4} [1 2 3 4 5 6 7 8 9 11] [1 2 3 4 5 6 7 8 9 11]{10} 10{2} [1 2 3 4 5 6 7 8 9 11]{3} [1 2 3 4 5 6 7 8 9 11] [1 2 3 4 5 6 7 8 9 11]{10} 10{2}  [1 2 3 4 5 6 7 8 9 11]*) | ([1 2 3 4 5 6 7 8 9 11]* 10{2} [1 2 3 4 5 6 7 8 9 11]{1} [1 2 3 4 5 6 7 8 9 11] [1 2 3 4 5 6 7 8 9 11]{10} 10{4}  [1 2 3 4 5 6 7 8 9 11]*) )",
];
